0 5 7 9 4 5 8 6 4 4 9 3 4 4 -1 
3 4 4 8 4 6 6 6 8 0 0 0 -1 4 2 1 1 8 9 -1 
3 6 7 9 8 1 4 6 5 6 0 4 4 3 5 4 9 8 6 4 7 9 -1 
4 0 6 3 6 7 8 8 -1 4 9 9 -1 3 5 8 8 -1 
7 4 5 0 6 2 0 9 0 2 2 1 6 0 -1 5 4 -1 0 9 -1 
6 2 3 1 1 4 2 6 2 7 3 2 9 6 -1 
8 1 7 6 9 7 4 7 -1 9 5 7 7 5 -1 2 -1 
3 -1 5 3 6 7 4 8 0 3 1 -1 8 2 0 5 8 0 4 7 0 3 1 6 -1 
2 7 -1 3 9 3 4 8 8 0 0 5 0 0 6 4 4 6 6 8 2 6 -1 
6 3 6 5 8 0 7 6 4 9 6 8 9 8 8 3 8 1 -1 
